NAME          ClpDefau
ROWS
 N  OBJROW
 L  R_152_0
 L  R_152_1
 L  R_152_2
 L  R_152_3
 L  R_152_4
 L  R_152_5
 L  R_152_6
 L  R_152_7
 L  R_152_8
 L  R_152_9
 L  R_152_10
 L  R_152_11
 L  R_152_12
 L  R_152_13
 L  R_152_14
 L  R_152_15
 L  R_152_16
 L  R_152_17
 L  R_152_18
 L  R_152_19
 L  R_152_20
 L  R_152_21
 L  R_152_22
 L  R_152_23
 L  R_152_24
 L  R_152_25
 L  R_152_26
 L  R_152_27
 L  R_152_28
 L  R_152_29
 L  R_152_30
 L  R_152_31
COLUMNS
    x_0       OBJROW     -8.           R_152_15  23.         
    x_0       R_152_17  42.            R_152_18  66.         
    x_0       R_152_22  58.            R_152_31  97.         
    x_1       OBJROW     -12.       
    x_2       OBJROW     -11.          R_152_5   25.         
    x_2       R_152_7   74.            R_152_12  67.         
    x_2       R_152_13  35.            R_152_19  47.         
    x_2       R_152_22  15.            R_152_24  94.         
    x_2       R_152_27  21.            R_152_30  76.         
    x_2       R_152_31  32.         
    x_3       OBJROW     -47.          R_152_0   5.          
    x_3       R_152_1   79.            R_152_9   34.         
    x_3       R_152_17  58.         
    x_4       OBJROW     -22.          R_152_1   22.         
    x_4       R_152_2   82.            R_152_6   32.         
    x_4       R_152_17  5.             R_152_19  66.         
    x_4       R_152_22  24.            R_152_24  4.          
    x_5       OBJROW     -95.          R_152_4   54.         
    x_5       R_152_10  16.            R_152_15  88.         
    x_5       R_152_17  26.            R_152_20  58.         
    x_5       R_152_21  82.            R_152_25  37.         
    x_5       R_152_26  40.            R_152_28  97.         
    x_5       R_152_30  48.         
    x_6       OBJROW     -86.          R_152_3   16.         
    x_6       R_152_4   79.            R_152_9   85.         
    x_6       R_152_11  91.         
    x_7       OBJROW     -40.          R_152_0   46.         
    x_7       R_152_1   70.            R_152_2   54.         
    x_7       R_152_8   38.            R_152_13  37.         
    x_7       R_152_14  70.            R_152_21  21.         
    x_7       R_152_28  57.         
    x_8       OBJROW     -33.          R_152_2   36.         
    x_8       R_152_20  60.            R_152_24  13.         
    x_8       R_152_25  28.            R_152_30  72.         
    x_9       OBJROW     -78.          R_152_0   96.         
    x_9       R_152_5   87.            R_152_12  1.          
    x_9       R_152_16  76.            R_152_22  11.         
    x_10      OBJROW     -28.          R_152_0   64.         
    x_10      R_152_4   72.            R_152_6   5.          
    x_10      R_152_16  41.            R_152_23  82.         
    x_10      R_152_27  65.         
    x_11      OBJROW     -78.          R_152_3   49.         
    x_11      R_152_12  92.            R_152_17  31.         
    x_11      R_152_21  18.         
    x_12      OBJROW     -5.           R_152_13  46.         
    x_12      R_152_15  24.            R_152_19  22.         
    x_12      R_152_31  41.         
    x_13      OBJROW     -75.          R_152_5   47.         
    x_13      R_152_14  19.            R_152_15  9.          
    x_13      R_152_18  67.            R_152_20  83.         
    x_14      OBJROW     -88.          R_152_7   14.         
    x_14      R_152_10  88.            R_152_12  51.         
    x_14      R_152_15  14.            R_152_18  55.         
    x_14      R_152_20  84.            R_152_24  18.         
    x_14      R_152_26  65.            R_152_28  70.         
    x_15      OBJROW     -21.          R_152_2   63.         
    x_15      R_152_3   70.            R_152_4   14.         
    x_15      R_152_18  27.            R_152_19  26.         
RHS
    RHS       R_152_0   75.            R_152_1   180.        
    RHS       R_152_2   208.           R_152_3   66.         
    RHS       R_152_4   47.            R_152_5   194.        
    RHS       R_152_6   181.           R_152_7   91.         
    RHS       R_152_8   94.            R_152_9   89.         
    RHS       R_152_10  140.           R_152_11  188.        
    RHS       R_152_12  50.            R_152_13  205.        
    RHS       R_152_14  75.            R_152_15  200.        
    RHS       R_152_16  46.            R_152_17  107.        
    RHS       R_152_18  161.           R_152_19  178.        
    RHS       R_152_20  52.            R_152_21  97.         
    RHS       R_152_22  76.            R_152_23  193.        
    RHS       R_152_24  120.           R_152_25  49.         
    RHS       R_152_26  90.            R_152_27  67.         
    RHS       R_152_28  75.            R_152_29  202.        
    RHS       R_152_30  179.           R_152_31  87.         
BOUNDS
 UI BOUND     x_0       100.        
 UI BOUND     x_1       100.        
 UI BOUND     x_2       100.        
 UI BOUND     x_3       100.        
 UI BOUND     x_4       100.        
 UI BOUND     x_5       100.        
 UI BOUND     x_6       100.        
 UI BOUND     x_7       100.        
 UI BOUND     x_8       100.        
 UI BOUND     x_9       100.        
 UI BOUND     x_10      100.        
 UI BOUND     x_11      100.        
 UI BOUND     x_12      100.        
 UI BOUND     x_13      100.        
 UI BOUND     x_14      100.        
 UI BOUND     x_15      100.        
ENDATA
